pp_path=/scratch/group/p.phy250153.000/codes/varga_dft_code_serial/input_files/
bf_path=/scratch/group/p.phy250153.000/codes/varga_dft_code_serial/input_files/Ng_6/

gs_path=/scratch/user/u.yh332757/coulomb/C4H10/gs

run_type=24
continuation=true
tddft_type=2
td_data_output_frequency=10
orb_en_comp_output_frequency=10 
time_step=0.001d0
N_time_steps=200000
ramp_time=0.5

temperature_ions=300
ion_velocity_init_seed=7694

#write_restart_frequency_taylor=5000
#keep_all_restart_taylor=false

print_fragment_info=true
print_fragment_freq=40
fragment_dens_rad=1.5d0

move_atoms=true
move_all_atoms=true
atomic_movement_frequency=5
moldyn_output_level=5
moldyn_output_frequency=500
save_trajectory=true
trajectory_output_frequency=500

#Laser read from file
laser_from_file=LPRL_Z_3.5_9.18_890.dat

#Static external field
e_ext=0.d0

output_full_td_density=true
td_density_output_frequency=500
td_density_output_format=bov

#output_full_td_current_density=true
#td_current_density_output_frequency=500
#td_current_density_output_format=bov

cap_left1=-10
cap_right1=10
cap_left2=-10
cap_right2=10
cap_left3=-10
cap_right3=10
cap_parameter=0.4
save_cap=true

output_full_td_density=true
td_density_output_format=bov
large_file_format=binary
output_mr_density_slice=false
output_mr_orbital_charge=false
output_plot_time=false

#output_td_psi=true
#psi_output_frequency=500
#tot_td_pot_output_freq=500
#output_tot_td_pot=true
#output_full_td_current_density=true
#td_current_density_output_frequency=500
#td_current_density_output_format=bov

output_inner_product=true
output_inner_product_frequency=50


restart_update_frequency=1000
smart_restart_detect=true


