14 1 1 1
   

 -0.5630   0.5160   0.0071    6 1 #C1 
 
  0.5630  -0.5159   0.0071    6 1 #C2  
  
 -1.9293  -0.1506  -0.0071    6 1 #C3  
 
  1.9294   0.1505  -0.0071    6 1 #C4 
 
 -0.4724   1.1666  -0.8706    1 1 #H5  
  
 -0.4825   1.1551   0.8940    1 1 #H6  
   
  0.4825  -1.1551   0.8940    1 1 #H7  
  
  0.4723  -1.1665  -0.8706    1 1 #H8  
  
 -2.0542  -0.7710  -0.9003    1 1 #H9  
  
 -2.0651  -0.7856   0.8742    1 1 #H10 
  
 -2.7203   0.6060  -0.0058    1 1 #H11
   
  2.0542   0.7709  -0.9003    1 1 #H12
   
  2.7202  -0.6062  -0.0059    1 1 #H13
   
  2.0652   0.7854   0.8743    1 1 #H14




0.3 100 100 100
