12 1 1 1
-1.92362674  -0.17446612  -0.00722898   8 1
-2.49650201  -0.36265251  -0.75533246   1 1
-1.26537422  -0.90289372   0.00571245   1 1
 0.17446612  -1.92362674   0.00722898   8 1
 0.90289372  -1.26537422  -0.00571245   1 1
 0.36265251  -2.49650201   0.75533246   1 1
-0.17446612   1.92362674   0.00722898   8 1
-0.36265251   2.49650201   0.75533246   1 1
-0.90289372   1.26537422  -0.00571245   1 1
 1.92362674   0.17446612  -0.00722898   8 1
 1.26537422   0.90289372   0.00571245   1 1
 2.49650201   0.36265251  -0.75533246   1 1
0.3 100 100 100