#app_path=/home/u.cc48522/codes/input_data_dft/
#bf_path=/home/u.cc48522/codes/input_data_dft/Ng_6/

#pp_path=/scratch/user/u.kw224068/dft/mask_volkov_3d/test/data
#bf_path=/scratch/user/u.kw224068/dft/mask_volkov_3d/test/data/Ng_6
pp_path=/scratch/group/p.phy240167.000/codes/input_data_dft/
bf_path=/scratch/group/p.phy240167.000/codes/input_data_dft/Ng_6/

run_type=78
continuation=false
mixer_type=0
mixer_beta=0.15
check_convergence=true
N_scf_iter_max=200
ediff=1.d-6
gs_data_output_frequency=100
large_file_format=binary
xc_functional_mode=4
#localize_orbitals=true
#
#self-interaction correction
#use_adsic=true
