 13    2  2   2
 1.478335294   0.078351387  -0.4177661      6     1
 0.212228677  -0.017283579   0.094176782    7     1
 0.276245656  -0.106449927   1.459140605    6     1
 1.601004533  -0.06630986    1.825985444    6     1
 2.364798358   0.050680975   0.633543856    6     1
 1.645116457   0.157724277  -1.477611692    1     1
 3.437133851   0.108531565   0.55547853     1     1
 1.978187536  -0.115444646   2.83324746     1     1
-0.616654615  -0.187439118   2.053889313    1     1
-0.637906297  -0.023237609  -0.449810459    1     1
-2.354014186  -0.088905851  -1.529580978    8     1
-2.841060486  -0.903010654  -1.688782883    1     1
-3.005559777   0.61761604   -1.568783879    1     1

0.220000000     150  140   140
